MARKOV
849
 2 2 2 2 2 2 2 2 2 2 2 2 2 2 2 2 2 2 2 2 2 2 2 2 2 2 2 2 2 2 2 2 2 2 2 2 2 2 2 2 2 2 2 2 2 2 2 2 2 2 2 2 2 2 2 2 2 2 2 2 2 2 2 2 2 2 2 2 2 2 2 2 2 2 2 2 2 2 2 2 2 2 2 2 2 2 2 2 2 2 2 2 2 2 2 2 2 2 2 2 2 2 2 2 2 2 2 2 2 2 2 2 2 2 2 2 2 2 2 2 2 2 2 2 2 2 2 2 2 2 2 2 2 2 2 2 2 2 2 2 2 2 2 2 2 2 2 2 2 2 2 2 2 2 2 2 2 2 2 2 2 2 2 2 2 2 2 2 2 2 2 2 2 2 2 2 2 2 2 2 2 2 2 2 2 2 2 2 2 2 2 2 2 2 2 2 2 2 2 2 2 2 2 2 2 2 2 2 2 2 2 2 2 2 2 2 2 2 2 2 2 2 2 2 2 2 2 2 2 2 2 2 2 2 2 2 2 2 2 2 2 2 2 2 2 2 2 2 2 2 2 2 2 2 2 2 2 2 2 2 2 2 2 2 2 2 2 2 2 2 2 2 2 2 2 2 2 2 2 2 2 2 2 2 2 2 2 2 2 2 2 2 2 2 2 2 2 2 2 2 2 2 2 2 2 2 2 2 2 2 2 2 2 2 2 2 2 2 2 2 2 2 2 2 2 2 2 2 2 2 2 2 2 2 2 2 2 2 2 2 2 2 2 2 2 2 2 2 2 2 2 2 2 2 2 2 2 2 2 2 2 2 2 2 2 2 2 2 2 2 2 2 2 2 2 2 2 2 2 2 2 2 2 2 2 2 2 2 2 2 2 2 2 2 2 2 2 2 2 2 2 2 2 2 2 2 2 2 2 2 2 2 2 2 2 2 2 2 2 2 2 2 2 2 2 2 2 2 2 2 2 2 2 2 2 2 2 2 2 2 2 2 2 2 2 2 2 2 2 2 2 2 2 2 2 2 2 2 2 2 2 2 2 2 2 2 2 2 2 2 2 2 2 2 2 2 2 2 2 2 2 2 2 2 2 2 2 2 2 2 2 2 2 2 2 2 2 2 2 2 2 2 2 2 2 2 2 2 2 2 2 2 2 2 2 2 2 2 2 2 2 2 2 2 2 2 2 2 2 2 2 2 2 2 2 2 2 2 2 2 2 2 2 2 2 2 2 2 2 2 2 2 2 2 2 2 2 2 2 2 2 2 2 2 2 2 2 2 2 2 2 2 2 2 2 2 2 2 2 2 2 2 2 2 2 2 2 2 2 2 2 2 2 2 2 2 2 2 2 2 2 2 2 2 2 2 2 2 2 2 2 2 2 2 2 2 2 2 2 2 2 2 2 2 2 2 2 2 2 2 2 2 2 2 2 2 2 2 2 2 2 2 2 2 2 2 2 2 2 2 2 2 2 2 2 2 2 2 2 2 2 2 2 2 2 2 2 2 2 2 2 2 2 2 2 2 2 2 2 2 2 2 2 2 2 2 2 2 2 2 2 2 2 2 2 2 2 2 2 2 2 2 2 2 2 2 2 2 2 2 2 2 2 2 2 2 2 2 2 2 2 2 2 2 2 2 2 2 2 2 2 2 2 2 2 2 2 2 2 2 2 2 2 2 2 2 2 2 2 2 2 2 2 2 2 2 2 2 2 2 2 2 2 2 2 2 2 2 2 2 2 2 2 2 2 2 2 2 2 2 2 2 2 2 2 2 2 2 2 2 2 2 2 2 2 2 2 2 2 2 2 2 2 2 2 2 2 2 2 2 2 2 2 2 2 2 2 2 2 2 2 2 2 2 2 2 2 2 2 2 2 2 2 2 2 2 2 2 2 2 2 2 2 2 2 2 2 2 2
860
3	138 265 848 
3	100 847 848 
3	180 846 847 
3	103 845 846 
3	149 844 845 
3	319 843 844 
3	64 842 843 
3	152 841 842 
3	86 840 841 
3	117 839 840 
3	75 838 839 
3	143 837 838 
3	247 836 837 
3	317 835 836 
3	241 834 835 
3	109 833 834 
3	286 832 833 
3	60 831 832 
3	182 830 831 
3	12 829 830 
3	95 828 829 
3	227 827 828 
3	250 826 827 
3	204 825 826 
3	262 824 825 
3	170 823 824 
3	30 822 823 
3	263 821 822 
3	330 820 821 
3	112 819 820 
3	150 818 819 
3	8 817 818 
3	107 816 817 
3	199 815 816 
3	11 814 815 
3	337 813 814 
3	305 812 813 
3	320 811 812 
3	48 810 811 
3	88 809 810 
3	264 808 809 
3	148 807 808 
3	61 806 807 
3	42 805 806 
3	203 804 805 
3	62 803 804 
3	141 802 803 
3	198 801 802 
3	167 800 801 
3	4 799 800 
3	74 798 799 
3	332 797 798 
3	304 796 797 
3	104 795 796 
3	145 794 795 
3	212 793 794 
3	118 792 793 
3	268 791 792 
3	91 790 791 
3	45 789 790 
3	285 788 789 
3	185 787 788 
3	49 786 787 
3	160 785 786 
3	235 784 785 
3	270 783 784 
3	181 782 783 
3	73 781 782 
3	127 780 781 
3	165 779 780 
3	38 778 779 
3	31 777 778 
3	83 776 777 
3	276 775 776 
3	209 774 775 
3	189 773 774 
3	96 772 773 
3	50 771 772 
3	301 770 771 
3	344 769 770 
3	271 768 769 
3	176 767 768 
3	154 766 767 
3	147 765 766 
3	291 764 765 
3	278 763 764 
3	206 762 763 
3	136 761 762 
3	123 760 761 
3	292 759 760 
3	231 758 759 
3	251 757 758 
3	139 756 757 
3	33 755 756 
3	302 754 755 
3	51 753 754 
3	40 752 753 
3	190 751 752 
3	284 750 751 
3	205 749 750 
3	219 748 749 
3	256 747 748 
3	310 746 747 
3	108 745 746 
3	121 744 745 
3	134 743 744 
3	240 742 743 
3	183 741 742 
3	59 740 741 
3	281 739 740 
3	260 738 739 
3	335 737 738 
3	20 736 737 
3	326 735 736 
3	58 734 735 
3	339 733 734 
3	293 732 733 
3	299 731 732 
3	224 730 731 
3	177 729 730 
3	194 728 729 
3	243 727 728 
3	32 726 727 
3	184 725 726 
3	196 724 725 
3	201 723 724 
3	146 722 723 
3	2 721 722 
3	297 720 721 
3	27 719 720 
3	162 718 719 
3	249 717 718 
3	71 716 717 
3	236 715 716 
3	14 714 715 
3	132 713 714 
3	164 712 713 
3	158 711 712 
3	282 710 711 
3	329 709 710 
3	223 708 709 
3	340 707 708 
3	25 706 707 
3	53 705 706 
3	229 704 705 
3	267 703 704 
3	218 702 703 
3	210 701 702 
3	179 700 701 
3	34 699 700 
3	79 698 699 
3	37 697 698 
3	333 696 697 
3	124 695 696 
3	347 694 695 
3	142 693 694 
3	277 692 693 
3	82 691 692 
3	323 690 691 
3	325 689 690 
1	689 
3	125 242 688 
3	287 687 688 
1	687 
3	77 138 686 
3	278 685 686 
3	178 684 685 
3	136 683 684 
3	139 682 683 
3	33 681 682 
3	253 680 681 
3	155 679 680 
3	81 678 679 
3	274 677 678 
3	68 676 677 
3	174 675 676 
3	200 674 675 
3	283 673 674 
3	213 672 673 
3	46 671 672 
3	63 670 671 
3	112 669 670 
3	150 668 669 
3	134 667 668 
3	69 666 667 
3	137 665 666 
3	144 664 665 
3	18 663 664 
3	335 662 663 
3	57 661 662 
3	264 660 661 
3	346 659 660 
3	279 658 659 
3	102 657 658 
3	101 656 657 
3	17 655 656 
3	208 654 655 
3	32 653 654 
3	306 652 653 
3	78 651 652 
3	311 650 651 
3	87 649 650 
3	114 648 649 
3	153 647 648 
3	122 646 647 
3	3 645 646 
3	252 644 645 
3	322 643 644 
3	222 642 643 
3	52 641 642 
3	312 640 641 
3	41 639 640 
3	56 638 639 
3	90 637 638 
3	16 636 637 
3	237 635 636 
3	257 634 635 
3	221 633 634 
3	7 632 633 
3	129 631 632 
3	1 630 631 
3	181 629 630 
3	89 628 629 
3	127 627 628 
3	239 626 627 
3	66 625 626 
3	254 624 625 
3	47 623 624 
3	331 622 623 
3	217 621 622 
3	135 620 621 
3	234 619 620 
3	338 618 619 
3	277 617 618 
1	617 
1	125 
3	138 168 616 
3	272 615 616 
3	0 614 615 
3	232 613 614 
3	206 612 613 
3	64 611 612 
3	261 610 611 
3	241 609 610 
3	155 608 609 
3	140 607 608 
3	130 606 607 
3	12 605 606 
3	343 604 605 
3	318 603 604 
3	246 602 603 
3	43 601 602 
3	205 600 601 
3	174 599 600 
3	303 598 599 
3	106 597 598 
3	324 596 597 
3	245 595 596 
3	211 594 595 
3	327 593 594 
3	11 592 593 
3	98 591 592 
3	120 590 591 
3	230 589 590 
3	84 588 589 
3	226 587 588 
3	220 586 587 
3	298 585 586 
3	244 584 585 
3	316 583 584 
3	23 582 583 
3	290 581 582 
3	248 580 581 
3	315 579 580 
3	193 578 579 
3	187 577 578 
3	294 576 577 
3	128 575 576 
3	273 574 575 
3	267 573 574 
3	19 572 573 
3	13 571 572 
3	10 570 571 
3	72 569 570 
3	116 568 569 
3	300 567 568 
3	195 566 567 
3	207 565 566 
3	159 564 565 
3	307 563 564 
3	156 562 563 
3	216 561 562 
3	228 560 561 
3	277 559 560 
3	197 558 559 
1	558 
3	9 125 557 
3	43 556 557 
1	556 
3	94 108 555 
3	10 554 555 
3	327 553 554 
3	24 552 553 
3	116 551 552 
3	126 550 551 
3	308 549 550 
3	166 548 549 
3	156 547 548 
3	130 546 547 
3	9 545 546 
3	80 544 545 
3	244 543 544 
3	341 542 543 
3	303 541 542 
1	541 
3	131 295 540 
3	249 539 540 
3	288 538 539 
3	258 537 538 
3	275 536 537 
3	186 535 536 
3	309 534 535 
3	286 533 534 
3	6 532 533 
3	26 531 532 
3	262 530 531 
3	15 529 530 
3	111 528 529 
3	35 527 528 
3	205 526 527 
3	29 525 526 
1	525 
3	106 300 524 
3	261 523 524 
3	343 522 523 
1	522 
3	265 272 521 
3	92 520 521 
3	117 519 520 
3	309 518 519 
3	155 517 518 
3	60 516 517 
3	67 515 516 
3	343 514 515 
3	119 513 514 
3	324 512 513 
3	233 511 512 
3	199 510 511 
3	144 509 510 
3	48 508 509 
3	173 507 508 
3	161 506 507 
3	39 505 506 
3	266 504 505 
3	298 503 504 
3	316 502 503 
3	290 501 502 
3	248 500 501 
3	193 499 500 
3	315 498 499 
3	304 497 498 
3	104 496 497 
3	312 495 496 
3	294 494 495 
3	125 493 494 
3	151 492 493 
3	129 491 492 
3	300 490 491 
3	116 489 490 
3	76 488 489 
3	22 487 488 
3	135 486 487 
3	191 485 486 
3	296 484 485 
3	136 483 484 
3	308 482 483 
3	251 481 482 
3	55 480 481 
3	97 479 480 
3	261 478 479 
3	139 477 478 
3	336 476 477 
3	113 475 476 
3	99 474 475 
3	140 473 474 
3	68 472 473 
3	318 471 472 
3	174 470 471 
3	200 469 470 
3	313 468 469 
3	106 467 468 
3	108 466 467 
3	211 465 466 
3	98 464 465 
3	18 463 464 
3	175 462 463 
3	85 461 462 
3	84 460 461 
3	326 459 460 
3	289 458 459 
3	279 457 458 
3	243 456 457 
3	32 455 456 
3	80 454 455 
3	9 453 454 
3	244 452 453 
3	78 451 452 
3	188 450 451 
3	94 449 450 
3	249 448 449 
3	28 447 448 
3	126 446 447 
3	158 445 446 
3	282 444 445 
3	314 443 444 
3	267 442 443 
3	115 441 442 
3	13 440 441 
3	218 439 440 
3	89 438 439 
3	79 437 438 
3	215 436 437 
3	159 435 436 
3	156 434 435 
3	321 433 434 
3	133 432 433 
3	277 431 432 
3	238 430 431 
3	168 429 430 
3	172 428 429 
3	138 427 428 
3	77 426 427 
3	0 425 426 
3	232 424 425 
3	319 423 424 
3	64 422 423 
3	86 421 422 
3	54 420 421 
3	241 419 420 
3	317 418 419 
3	12 417 418 
3	274 416 417 
3	328 415 416 
3	43 414 415 
3	303 413 414 
3	11 412 413 
3	327 411 412 
3	214 410 411 
3	120 409 410 
3	264 408 409 
3	163 407 408 
3	306 406 407 
3	259 405 406 
3	311 404 405 
3	23 403 404 
3	93 402 403 
3	157 401 402 
3	334 400 401 
3	225 399 400 
3	45 398 399 
3	169 397 398 
3	285 396 397 
3	128 395 396 
3	202 394 395 
3	257 393 394 
3	235 392 393 
3	195 391 392 
3	192 390 391 
3	207 389 390 
3	166 388 389 
3	105 387 388 
3	255 386 387 
3	307 385 386 
3	271 384 385 
3	154 383 384 
3	291 382 383 
3	171 381 382 
3	206 380 381 
3	345 379 380 
3	269 378 379 
3	5 377 378 
3	33 376 377 
3	44 375 376 
3	40 374 375 
3	130 373 374 
3	246 372 373 
3	205 371 372 
3	245 370 371 
3	24 369 370 
3	230 368 369 
3	335 367 368 
3	280 366 367 
3	226 365 366 
3	220 364 365 
3	194 363 364 
3	342 362 363 
3	187 361 362 
3	110 360 361 
3	70 359 360 
3	65 358 359 
3	273 357 358 
3	21 356 357 
3	19 355 356 
3	10 354 355 
3	72 353 354 
3	36 352 353 
3	216 351 352 
3	228 350 351 
3	82 349 350 
3	197 348 349 
1	348 
1	265 
1	100 
1	272 
1	180 
1	178 
1	152 
1	92 
1	75 
1	117 
1	247 
1	253 
1	286 
1	309 
1	60 
1	155 
1	182 
1	26 
1	250 
1	67 
1	81 
1	262 
1	204 
1	343 
1	170 
1	111 
1	283 
1	213 
1	330 
1	119 
1	8 
1	324 
1	107 
1	199 
1	233 
1	131 
1	305 
1	137 
1	144 
1	88 
1	48 
1	161 
1	173 
1	62 
1	198 
1	141 
1	39 
1	298 
1	266 
1	74 
1	316 
1	290 
1	248 
1	193 
1	315 
1	242 
1	304 
1	104 
1	145 
1	52 
1	268 
1	312 
1	294 
1	125 
1	91 
1	151 
1	16 
1	185 
1	160 
1	73 
1	181 
1	129 
1	239 
1	300 
1	116 
1	31 
1	276 
1	209 
1	76 
1	22 
1	331 
1	50 
1	135 
1	301 
1	338 
1	191 
1	344 
1	296 
1	341 
1	136 
1	292 
1	308 
1	251 
1	55 
1	97 
1	139 
1	261 
1	336 
1	113 
1	51 
1	99 
1	140 
1	68 
1	284 
1	318 
1	256 
1	219 
1	174 
1	200 
1	313 
1	310 
1	106 
1	108 
1	134 
1	211 
1	183 
1	98 
1	18 
1	281 
1	175 
1	20 
1	85 
1	84 
1	58 
1	326 
1	339 
1	289 
1	293 
1	279 
1	224 
1	299 
1	102 
1	243 
1	208 
1	32 
1	80 
1	9 
1	244 
1	78 
1	297 
1	188 
1	87 
1	94 
1	114 
1	153 
1	249 
1	28 
1	126 
1	71 
1	236 
1	322 
1	158 
1	282 
1	56 
1	314 
1	53 
1	267 
1	115 
1	221 
1	7 
1	13 
1	89 
1	218 
1	179 
1	79 
1	37 
1	333 
1	215 
1	47 
1	159 
1	124 
1	156 
1	321 
1	347 
1	133 
1	277 
1	238 
1	35 
1	323 
1	168 
1	138 
1	172 
1	77 
1	0 
1	232 
1	103 
1	149 
1	319 
1	64 
1	288 
1	86 
1	54 
1	258 
1	143 
1	241 
1	317 
1	109 
1	6 
1	12 
1	227 
1	95 
1	274 
1	328 
1	30 
1	43 
1	263 
1	63 
1	303 
1	112 
1	150 
1	11 
1	327 
1	214 
1	337 
1	120 
1	320 
1	57 
1	264 
1	148 
1	61 
1	203 
1	42 
1	346 
1	101 
1	17 
1	167 
1	163 
1	306 
1	4 
1	259 
1	29 
1	311 
1	23 
1	93 
1	332 
1	212 
1	118 
1	157 
1	287 
1	334 
1	225 
1	41 
1	45 
1	169 
1	285 
1	128 
1	202 
1	257 
1	237 
1	49 
1	235 
1	270 
1	165 
1	127 
1	66 
1	83 
1	38 
1	195 
1	192 
1	189 
1	105 
1	166 
1	207 
1	254 
1	186 
1	255 
1	96 
1	307 
1	271 
1	176 
1	147 
1	154 
1	291 
1	171 
1	206 
1	278 
1	345 
1	123 
1	269 
1	231 
1	5 
1	33 
1	44 
1	302 
1	40 
1	190 
1	130 
1	15 
1	246 
1	205 
1	46 
1	121 
1	295 
1	240 
1	245 
1	69 
1	24 
1	59 
1	260 
1	230 
1	335 
1	280 
1	226 
1	220 
1	177 
1	194 
1	184 
1	196 
1	201 
1	146 
1	2 
1	27 
1	342 
1	162 
1	187 
1	122 
1	110 
1	14 
1	3 
1	252 
1	132 
1	70 
1	222 
1	164 
1	275 
1	65 
1	90 
1	329 
1	223 
1	340 
1	25 
1	273 
1	229 
1	21 
1	19 
1	10 
1	1 
1	72 
1	210 
1	34 
1	36 
1	217 
1	234 
1	216 
1	142 
1	228 
1	82 
1	325 
1	197 
0	

8
 1 0 0.9 0.1 0.9 0.1 0.81 0.19
8
 1 0 0 1 0 0 1 1
8
 1 0 0 1 0.3 0 0.7 1
8
 1 0 0 1 0.05 0 0.95 1
8
 1 0 0 1 0.5 0 0.5 1
8
 1 0 0 1 0.9 0 0.1 1
8
 1 0 0 1 0 0 1 1
8
 1 0 0 1 0.5 0 0.5 1
8
 1 0 0 1 0.5 0 0.5 1
8
 1 0 0 1 0.5 0 0.5 1
8
 1 0 0 1 0.89 0 0.11 1
8
 1 0 0 1 0.9 0 0.1 1
8
 1 0 0 1 0.9 0 0.1 1
8
 1 0 0 1 0.5 0 0.5 1
8
 1 0 0 1 0.9 0 0.1 1
8
 1 0 0 1 0.9 0 0.1 1
8
 1 0 0 1 0.5 0 0.5 1
8
 1 0 0 1 0.9 0 0.1 1
8
 1 0 0 1 0 0 1 1
8
 1 0 0 1 0 0 1 1
8
 1 0 0 1 0.89 0 0.11 1
8
 1 0 0 1 0.9 0 0.1 1
8
 1 0 0 1 0.9 0 0.1 1
8
 1 0 0 1 0.5 0 0.5 1
8
 1 0 0 1 0.05 0 0.95 1
8
 1 0 0 1 0.89 0 0.11 1
8
 1 0 0 1 0.9 0 0.1 1
8
 1 0 0 1 0.4 0 0.6 1
8
 1 0 0 1 0.9 0 0.1 1
8
 1 0 0 1 0.9 0 0.1 1
8
 1 0 0 1 0.8 0 0.2 1
8
 1 0 0 1 0.9 0 0.1 1
8
 1 0 0 1 0.94 0 0.06 1
8
 1 0 0 1 0.5 0 0.5 1
8
 1 0 0 1 0 0 1 1
8
 1 0 0 1 0.89 0 0.11 1
8
 1 0 0 1 0.3 0 0.7 1
8
 1 0 0 1 0.02 0 0.98 1
8
 1 0 0 1 0.5 0 0.5 1
8
 1 0 0 1 0.9 0 0.1 1
8
 1 0 0 1 0.9 0 0.1 1
8
 1 0 0 1 0.3 0 0.7 1
8
 1 0 0 1 0.9 0 0.1 1
8
 1 0 0 1 0.9 0 0.1 1
8
 1 0 0 1 0.5 0 0.5 1
8
 1 0 0 1 0.3 0 0.7 1
8
 1 0 0 1 0.09 0 0.91 1
8
 1 0 0 1 0.3 0 0.7 1
8
 1 0 0 1 0.9 0 0.1 1
8
 1 0 0 1 0.9 0 0.1 1
8
 1 0 0 1 0.3 0 0.7 1
8
 1 0 0 1 0.94 0 0.06 1
8
 1 0 0 1 0.5 0 0.5 1
8
 1 0 0 1 0.9 0 0.1 1
8
 1 0 0 1 0.79 0 0.21 1
8
 1 0 0 1 0.5 0 0.5 1
8
 1 0 0 1 0.5 0 0.5 1
8
 1 0 0 1 0.9 0 0.1 1
8
 1 0 0 1 0.01 0 0.99 1
8
 1 0 0 1 0.89 0 0.11 1
8
 1 0 0 1 0.8 0 0.2 1
8
 1 0 0 1 0.3 0 0.7 1
8
 1 0 0 1 0.89 0 0.11 1
8
 1 0 0 1 0.9 0 0.1 1
8
 1 0 0 1 0.9 0 0.1 1
8
 1 0 0 1 0.85 0 0.15 1
8
 1 0 0 1 0.89 0 0.11 1
8
 1 0 0 1 0.89 0 0.11 1
8
 1 0 0 1 0.8 0 0.2 1
8
 1 0 0 1 0.89 0 0.11 1
8
 1 0 0 1 0.3 0 0.7 1
8
 1 0 0 1 0.8 0 0.2 1
8
 1 0 0 1 0.9 0 0.1 1
8
 1 0 0 1 0.9 0 0.1 1
8
 1 0 0 1 0.5 0 0.5 1
8
 1 0 0 1 0.5 0 0.5 1
8
 1 0 0 1 0.9 0 0.1 1
8
 1 0 0 1 0.8 0 0.2 1
8
 1 0 0 1 0.01 0 0.99 1
8
 1 0 0 1 0.9 0 0.1 1
8
 1 0 0 1 0.9 0 0.1 1
8
 1 0 0 1 0.8 0 0.2 1
8
 1 0 0 1 0.7 0 0.3 1
8
 1 0 0 1 0.2 0 0.8 1
8
 1 0 0 1 0.05 0 0.95 1
8
 1 0 0 1 0.8 0 0.2 1
8
 1 0 0 1 0.89 0 0.11 1
8
 1 0 0 1 0.9 0 0.1 1
8
 1 0 0 1 0.3 0 0.7 1
8
 1 0 0 1 0.9 0 0.1 1
8
 1 0 0 1 0.9 0 0.1 1
8
 1 0 0 1 0.5 0 0.5 1
8
 1 0 0 1 0.9 0 0.1 1
8
 1 0 0 1 0.5 0 0.5 1
8
 1 0 0 1 0 0 1 1
8
 1 0 0 1 0.4 0 0.6 1
8
 1 0 0 1 0.9 0 0.1 1
8
 1 0 0 1 0.3 0 0.7 1
8
 1 0 0 1 0.8 0 0.2 1
8
 1 0 0 1 0 0 1 1
8
 1 0 0 1 0.89 0 0.11 1
8
 1 0 0 1 0.3 0 0.7 1
8
 1 0 0 1 0.8 0 0.2 1
8
 1 0 0 1 0.61 0 0.39 1
8
 1 0 0 1 0.86 0 0.14 1
8
 1 0 0 1 0.9 0 0.1 1
8
 1 0 0 1 0.94 0 0.06 1
8
 1 0 0 1 0.3 0 0.7 1
8
 1 0 0 1 0.01 0 0.99 1
8
 1 0 0 1 0.9 0 0.1 1
8
 1 0 0 1 0.9 0 0.1 1
8
 1 0 0 1 0.9 0 0.1 1
8
 1 0 0 1 0.9 0 0.1 1
8
 1 0 0 1 0.5 0 0.5 1
8
 1 0 0 1 0.1 0 0.9 1
8
 1 0 0 1 0.9 0 0.1 1
8
 1 0 0 1 0.9 0 0.1 1
8
 1 0 0 1 0.9 0 0.1 1
8
 1 0 0 1 0.9 0 0.1 1
8
 1 0 0 1 0 0 1 1
8
 1 0 0 1 0.9 0 0.1 1
8
 1 0 0 1 0.5 0 0.5 1
8
 1 0 0 1 0.5 0 0.5 1
8
 1 0 0 1 0.1 0 0.9 1
8
 1 0 0 1 0 0 1 1
8
 1 0 0 1 0 0 1 1
8
 1 0 0 1 0.3 0 0.7 1
8
 1 0 0 1 0.5 0 0.5 1
8
 1 0 0 1 0.2 0 0.8 1
8
 1 0 0 1 0.9 0 0.1 1
8
 1 0 0 1 0.5 0 0.5 1
8
 1 0 0 1 0.89 0 0.11 1
8
 1 0 0 1 0.8 0 0.2 1
8
 1 0 0 1 0.89 0 0.11 1
8
 1 0 0 1 0.89 0 0.11 1
8
 1 0 0 1 0.89 0 0.11 1
8
 1 0 0 1 0.9 0 0.1 1
8
 1 0 0 1 0.5 0 0.5 1
8
 1 0 0 1 0.5 0 0.5 1
8
 1 0 0 1 0.3 0 0.7 1
8
 1 0 0 1 0.9 0 0.1 1
8
 1 0 0 1 0.8 0 0.2 1
8
 1 0 0 1 0.8 0 0.2 1
8
 1 0 0 1 0.5 0 0.5 1
8
 1 0 0 1 0.8 0 0.2 1
8
 1 0 0 1 0.01 0 0.99 1
8
 1 0 0 1 0.5 0 0.5 1
8
 1 0 0 1 0.9 0 0.1 1
8
 1 0 0 1 0 0 1 1
8
 1 0 0 1 0.3 0 0.7 1
8
 1 0 0 1 0.5 0 0.5 1
8
 1 0 0 1 0.4 0 0.6 1
8
 1 0 0 1 0.8 0 0.2 1
8
 1 0 0 1 0.9 0 0.1 1
8
 1 0 0 1 0.9 0 0.1 1
8
 1 0 0 1 0.89 0 0.11 1
8
 1 0 0 1 0.2 0 0.8 1
8
 1 0 0 1 0.9 0 0.1 1
8
 1 0 0 1 0.89 0 0.11 1
8
 1 0 0 1 0.94 0 0.06 1
2
 0.03 1
8
 1 0 0.5 0.5 0.3 0.7 0.15 0.85
8
 1 0 0 1 0.5 0 0.5 1
2
 0.03 1
8
 1 0 0.1 0.9 0.5 0.5 0.05 0.95
8
 1 0 0 1 0.5 0 0.5 1
8
 1 0 0 1 0.1 0 0.9 1
8
 1 0 0 1 0.1 0 0.9 1
8
 1 0 0 1 0.1 0 0.9 1
8
 1 0 0 1 0.09 0 0.91 1
8
 1 0 0 1 0.5 0 0.5 1
8
 1 0 0 1 0.01 0 0.99 1
8
 1 0 0 1 0.95 0 0.05 1
8
 1 0 0 1 0.5 0 0.5 1
8
 1 0 0 1 0.19 0 0.81 1
8
 1 0 0 1 0.01 0 0.99 1
8
 1 0 0 1 0.01 0 0.99 1
8
 1 0 0 1 0.09 0 0.91 1
8
 1 0 0 1 0.5 0 0.5 1
8
 1 0 0 1 0.01 0 0.99 1
8
 1 0 0 1 0.1 0 0.9 1
8
 1 0 0 1 0.05 0 0.95 1
8
 1 0 0 1 0.1 0 0.9 1
8
 1 0 0 1 0.19 0 0.81 1
8
 1 0 0 1 0.19 0 0.81 1
8
 1 0 0 1 0.1 0 0.9 1
8
 1 0 0 1 0.05 0 0.95 1
8
 1 0 0 1 0.5 0 0.5 1
8
 1 0 0 1 0.05 0 0.95 1
8
 1 0 0 1 0.01 0 0.99 1
8
 1 0 0 1 0.5 0 0.5 1
8
 1 0 0 1 0.2 0 0.8 1
8
 1 0 0 1 0.1 0 0.9 1
8
 1 0 0 1 0.5 0 0.5 1
8
 1 0 0 1 0.5 0 0.5 1
8
 1 0 0 1 0.95 0 0.05 1
8
 1 0 0 1 0.89 0 0.11 1
8
 1 0 0 1 0.5 0 0.5 1
8
 1 0 0 1 0.5 0 0.5 1
8
 1 0 0 1 0.5 0 0.5 1
8
 1 0 0 1 0.2 0 0.8 1
8
 1 0 0 1 0.5 0 0.5 1
8
 1 0 0 1 0.5 0 0.5 1
8
 1 0 0 1 0.5 0 0.5 1
8
 1 0 0 1 0.09 0 0.91 1
8
 1 0 0 1 0.19 0 0.81 1
8
 1 0 0 1 0.5 0 0.5 1
8
 1 0 0 1 0.09 0 0.91 1
8
 1 0 0 1 0.5 0 0.5 1
8
 1 0 0 1 0.59 0 0.41 1
8
 1 0 0 1 0.5 0 0.5 1
8
 1 0 0 1 0.1 0 0.9 1
8
 1 0 0 1 0.1 0 0.9 1
8
 1 0 0 1 0.01 0 0.99 1
8
 1 0 0 1 0.3 0 0.7 1
8
 1 0 0 1 0.1 0 0.9 1
8
 1 0 0 1 0.5 0 0.5 1
8
 1 0 0 1 0.5 0 0.5 1
8
 1 0 0 1 0.19 0 0.81 1
8
 1 0 0 1 0.5 0 0.5 1
8
 1 0 0 1 0.19 0 0.81 1
8
 1 0 0 1 0.09 0 0.91 1
8
 1 0 0 1 0.1 0 0.9 1
8
 1 0 0 1 0.5 0 0.5 1
8
 1 0 0 1 0.5 0 0.5 1
8
 1 0 0 1 0.59 0 0.41 1
8
 1 0 0 1 0.05 0 0.95 1
8
 1 0 0 1 0.19 0 0.81 1
8
 1 0 0 1 0.05 0 0.95 1
8
 1 0 0 1 0.2 0 0.8 1
8
 1 0 0 1 0.1 0 0.9 1
8
 1 0 0 1 0.5 0 0.5 1
8
 1 0 0 1 0.5 0 0.5 1
8
 1 0 0 1 0.1 0 0.9 1
2
 0.03 1
2
 0.03 0.709
8
 1 0 0 1 0 1 0 1
8
 1 0 0 1 0 0 1 1
8
 1 0 0 1 0 0 1 1
8
 1 0 0 1 0 0 1 1
8
 1 0 0 1 0 0 1 1
8
 1 0 0 1 0 0 1 1
8
 1 0 0 1 0 0 1 1
8
 1 0 0 1 0 0 1 1
8
 1 0 0 1 0 0 1 1
8
 1 0 0 1 0 0 1 1
8
 1 0 0 1 0 0 1 1
8
 1 0 0 1 0 0 1 1
8
 1 0 0 1 0 0 1 1
8
 1 0 0 1 0 0 1 1
8
 1 0 0 1 0 0 1 1
8
 1 0 0 1 0 0 1 1
8
 1 0 0 1 0 0 1 1
8
 1 0 0 1 0 0 1 1
8
 1 0 0 1 0 0 1 1
8
 1 0 0 1 0 0 1 1
8
 1 0 0 1 0 0 1 1
8
 1 0 0 1 0 0 1 1
8
 1 0 0 1 0 0 1 1
8
 1 0 0 1 0 0 1 1
8
 1 0 0 1 0 0 1 1
8
 1 0 0 1 0 0 1 1
8
 1 0 0 1 0 0 1 1
8
 1 0 0 1 0 0 1 1
8
 1 0 0 1 0 0 1 1
8
 1 0 0 1 0 0 1 1
8
 1 0 0 1 0 0 1 1
8
 1 0 0 1 0 0 1 1
8
 1 0 0 1 0 0 1 1
8
 1 0 0 1 0 0 1 1
8
 1 0 0 1 0 0 1 1
8
 1 0 0 1 0 0 1 1
8
 1 0 0 1 0 0 1 1
8
 1 0 0 1 0 0 1 1
8
 1 0 0 1 0 0 1 1
8
 1 0 0 1 0 0 1 1
8
 1 0 0 1 0 0 1 1
8
 1 0 0 1 0 0 1 1
8
 1 0 0 1 0 0 1 1
8
 1 0 0 1 0 0 1 1
8
 1 0 0 1 0 0 1 1
8
 1 0 0 1 0 0 1 1
8
 1 0 0 1 0 0 1 1
8
 1 0 0 1 0 0 1 1
8
 1 0 0 1 0 0 1 1
8
 1 0 0 1 0 0 1 1
8
 1 0 0 1 0 0 1 1
8
 1 0 0 1 0 0 1 1
8
 1 0 0 1 0 0 1 1
8
 1 0 0 1 0 0 1 1
8
 1 0 0 1 0 0 1 1
8
 1 0 0 1 0 0 1 1
8
 1 0 0 1 0 0 1 1
8
 1 0 0 1 0 0 1 1
8
 1 0 0 1 0 0 1 1
2
 0.03 1
8
 1 0 0.3 0.7 0.5 0.5 0.15 0.85
8
 1 0 0 1 0.01 0 0.99 1
2
 0.03 1
8
 1 0 0.57 0.43 0.5 0.5 0.285 0.715
8
 1 0 0 1 0.1 0 0.9 1
8
 1 0 0 1 0.09 0 0.91 1
8
 1 0 0 1 0.5 0 0.5 1
8
 1 0 0 1 0.1 0 0.9 1
8
 1 0 0 1 0.5 0 0.5 1
8
 1 0 0 1 0.5 0 0.5 1
8
 1 0 0 1 0.5 0 0.5 1
8
 1 0 0 1 0.01 0 0.99 1
8
 1 0 0 1 0.5 0 0.5 1
8
 1 0 0 1 0.5 0 0.5 1
8
 1 0 0 1 0.4 0 0.6 1
8
 1 0 0 1 0.1 0 0.9 1
8
 1 0 0 1 0.01 0 0.99 1
8
 1 0 0 1 0.2 0 0.8 1
2
 0.03 1
8
 1 0 0.8 0.2 0.1 0.9 0.08 0.92
8
 1 0 0 1 0.89 0 0.11 1
8
 1 0 0 1 0.01 0 0.99 1
8
 1 0 0 1 0.5 0 0.5 1
8
 1 0 0 1 0.89 0 0.11 1
8
 1 0 0 1 0.5 0 0.5 1
8
 1 0 0 1 0.8 0 0.2 1
8
 1 0 0 1 0.5 0 0.5 1
8
 1 0 0 1 0.5 0 0.5 1
8
 1 0 0 1 0.5 0 0.5 1
8
 1 0 0 1 0.5 0 0.5 1
8
 1 0 0 1 0.1 0 0.9 1
8
 1 0 0 1 0.5 0 0.5 1
8
 1 0 0 1 0.9 0 0.1 1
8
 1 0 0 1 0.5 0 0.5 1
8
 1 0 0 1 0.8 0 0.2 1
2
 0.03 1
8
 1 0 0 1 0 1 0 1
8
 1 0 0 1 0 0 1 1
8
 1 0 0 1 0 0 1 1
2
 0.03 1
8
 1 0 0 1 0.9 0.1 0 1
8
 1 0 0 1 0.2 0 0.8 1
8
 1 0 0 1 0.4 0 0.6 1
8
 1 0 0 1 0.5 0 0.5 1
8
 1 0 0 1 0 0 1 1
8
 1 0 0 1 0.9 0 0.1 1
8
 1 0 0 1 0.5 0 0.5 1
8
 1 0 0 1 0.89 0 0.11 1
8
 1 0 0 1 0.5 0 0.5 1
8
 1 0 0 1 0 0 1 1
8
 1 0 0 1 0.89 0 0.11 1
8
 1 0 0 1 0.5 0 0.5 1
8
 1 0 0 1 0.2 0 0.8 1
8
 1 0 0 1 0.4 0 0.6 1
8
 1 0 0 1 0.1 0 0.9 1
8
 1 0 0 1 0.5 0 0.5 1
8
 1 0 0 1 0.5 0 0.5 1
8
 1 0 0 1 0.1 0 0.9 1
8
 1 0 0 1 0 0 1 1
8
 1 0 0 1 0.5 0 0.5 1
8
 1 0 0 1 0.01 0 0.99 1
8
 1 0 0 1 0 0 1 1
8
 1 0 0 1 0 0 1 1
8
 1 0 0 1 0 0 1 1
8
 1 0 0 1 0.5 0 0.5 1
8
 1 0 0 1 0.9 0 0.1 1
8
 1 0 0 1 0.5 0 0.5 1
8
 1 0 0 1 0 0 1 1
8
 1 0 0 1 0.5 0 0.5 1
8
 1 0 0 1 0.9 0 0.1 1
8
 1 0 0 1 0.5 0 0.5 1
8
 1 0 0 1 0.1 0 0.9 1
8
 1 0 0 1 0 0 1 1
8
 1 0 0 1 0.1 0 0.9 1
8
 1 0 0 1 0.5 0 0.5 1
8
 1 0 0 1 0.9 0 0.1 1
8
 1 0 0 1 0.5 0 0.5 1
8
 1 0 0 1 0.5 0 0.5 1
8
 1 0 0 1 0.9 0 0.1 1
8
 1 0 0 1 0.09 0 0.91 1
8
 1 0 0 1 0.5 0 0.5 1
8
 1 0 0 1 0.1 0 0.9 1
8
 1 0 0 1 0.5 0 0.5 1
8
 1 0 0 1 0.5 0 0.5 1
8
 1 0 0 1 0.9 0 0.1 1
8
 1 0 0 1 0.09 0 0.91 1
8
 1 0 0 1 0.5 0 0.5 1
8
 1 0 0 1 0.5 0 0.5 1
8
 1 0 0 1 0 0 1 1
8
 1 0 0 1 0.5 0 0.5 1
8
 1 0 0 1 0 0 1 1
8
 1 0 0 1 0 0 1 1
8
 1 0 0 1 0.5 0 0.5 1
8
 1 0 0 1 0.1 0 0.9 1
8
 1 0 0 1 0.5 0 0.5 1
8
 1 0 0 1 0.57 0 0.43 1
8
 1 0 0 1 0 0 1 1
8
 1 0 0 1 0 0 1 1
8
 1 0 0 1 0.5 0 0.5 1
8
 1 0 0 1 0.5 0 0.5 1
8
 1 0 0 1 0.9 0 0.1 1
8
 1 0 0 1 0 0 1 1
8
 1 0 0 1 0.5 0 0.5 1
8
 1 0 0 1 0.1 0 0.9 1
8
 1 0 0 1 0.5 0 0.5 1
8
 1 0 0 1 0.1 0 0.9 1
8
 1 0 0 1 0.5 0 0.5 1
8
 1 0 0 1 0.4 0 0.6 1
8
 1 0 0 1 0.5 0 0.5 1
8
 1 0 0 1 0 0 1 1
8
 1 0 0 1 0.5 0 0.5 1
8
 1 0 0 1 0.9 0 0.1 1
8
 1 0 0 1 0.5 0 0.5 1
8
 1 0 0 1 0.89 0 0.11 1
8
 1 0 0 1 0.5 0 0.5 1
8
 1 0 0 1 0.5 0 0.5 1
8
 1 0 0 1 0.5 0 0.5 1
8
 1 0 0 1 0.4 0 0.6 1
8
 1 0 0 1 0.5 0 0.5 1
8
 1 0 0 1 0 0 1 1
8
 1 0 0 1 0.1 0 0.9 1
8
 1 0 0 1 0.6 0 0.4 1
8
 1 0 0 1 0.5 0 0.5 1
8
 1 0 0 1 0.1 0 0.9 1
8
 1 0 0 1 0.4 0 0.6 1
8
 1 0 0 1 0.5 0 0.5 1
8
 1 0 0 1 0 0 1 1
8
 1 0 0 1 0 0 1 1
8
 1 0 0 1 0.1 0 0.9 1
8
 1 0 0 1 0.59 0 0.41 1
8
 1 0 0 1 0 0 1 1
8
 1 0 0 1 0.4 0 0.6 1
8
 1 0 0 1 0 0 1 1
8
 1 0 0 1 0.5 0 0.5 1
8
 1 0 0 1 0.9 0 0.1 1
8
 1 0 0 1 0.5 0 0.5 1
8
 1 0 0 1 0 0 1 1
8
 1 0 0 1 0 0 1 1
8
 1 0 0 1 0.9 0 0.1 1
8
 1 0 0 1 0.6 0 0.4 1
8
 1 0 0 1 0.4 0 0.6 1
8
 1 0 0 1 0.5 0 0.5 1
8
 1 0 0 1 0.1 0 0.9 1
8
 1 0 0 1 0.4 0 0.6 1
8
 1 0 0 1 0 0 1 1
8
 1 0 0 1 0.5 0 0.5 1
8
 1 0 0 1 0.09 0 0.91 1
8
 1 0 0 1 0 0 1 1
8
 1 0 0 1 0 0 1 1
8
 1 0 0 1 0 0 1 1
8
 1 0 0 1 0 0 1 1
8
 1 0 0 1 0.89 0 0.11 1
8
 1 0 0 1 0 0 1 1
8
 1 0 0 1 0.5 0 0.5 1
8
 1 0 0 1 0.5 0 0.5 1
8
 1 0 0 1 0.5 0 0.5 1
8
 1 0 0 1 0.5 0 0.5 1
8
 1 0 0 1 0.5 0 0.5 1
8
 1 0 0 1 0 0 1 1
8
 1 0 0 1 0.5 0 0.5 1
8
 1 0 0 1 0.4 0 0.6 1
8
 1 0 0 1 0.7 0 0.3 1
8
 1 0 0 1 0.5 0 0.5 1
8
 1 0 0 1 0.89 0 0.11 1
8
 1 0 0 1 0.5 0 0.5 1
8
 1 0 0 1 0.9 0 0.1 1
8
 1 0 0 1 0 0 1 1
8
 1 0 0 1 0.9 0 0.1 1
8
 1 0 0 1 0.5 0 0.5 1
8
 1 0 0 1 0.5 0 0.5 1
8
 1 0 0 1 0 0 1 1
8
 1 0 0 1 0.75 0 0.25 1
8
 1 0 0 1 0 0 1 1
8
 1 0 0 1 0.09 0 0.91 1
8
 1 0 0 1 0.5 0 0.5 1
8
 1 0 0 1 0.5 0 0.5 1
8
 1 0 0 1 0 0 1 1
8
 1 0 0 1 0.9 0 0.1 1
8
 1 0 0 1 0.7 0 0.3 1
8
 1 0 0 1 0.4 0 0.6 1
8
 1 0 0 1 0.1 0 0.9 1
8
 1 0 0 1 0 0 1 1
8
 1 0 0 1 0.6 0 0.4 1
8
 1 0 0 1 0.5 0 0.5 1
8
 1 0 0 1 0.4 0 0.6 1
8
 1 0 0 1 0.9 0 0.1 1
8
 1 0 0 1 0.5 0 0.5 1
8
 1 0 0 1 0.9 0 0.1 1
8
 1 0 0 1 0 0 1 1
8
 1 0 0 1 0 0 1 1
8
 1 0 0 1 0 0 1 1
8
 1 0 0 1 0 0 1 1
8
 1 0 0 1 0.09 0 0.91 1
8
 1 0 0 1 0 0 1 1
8
 1 0 0 1 0.9 0 0.1 1
8
 1 0 0 1 0.5 0 0.5 1
8
 1 0 0 1 0 0 1 1
8
 1 0 0 1 0 0 1 1
8
 1 0 0 1 0.9 0 0.1 1
8
 1 0 0 1 0.9 0 0.1 1
8
 1 0 0 1 0 0 1 1
8
 1 0 0 1 0.05 0 0.95 1
8
 1 0 0 1 0.5 0 0.5 1
8
 1 0 0 1 0.5 0 0.5 1
8
 1 0 0 1 0 0 1 1
8
 1 0 0 1 0.5 0 0.5 1
8
 1 0 0 1 0 0 1 1
8
 1 0 0 1 0.1 0 0.9 1
8
 1 0 0 1 0 0 1 1
8
 1 0 0 1 0.5 0 0.5 1
8
 1 0 0 1 0 0 1 1
8
 1 0 0 1 0 0 1 1
8
 1 0 0 1 0.9 0 0.1 1
8
 1 0 0 1 0.01 0 0.99 1
2
 0.03 1
2
 0.9995 0.0005
2
 0.99995 5e-05
2
 0.99995 5e-05
2
 0.99997 3e-05
2
 0.99968 0.00032
2
 0.9999 0.0001
2
 0.99999 1e-05
2
 0.9999 0.0001
2
 0.9999 0.0001
2
 0.999999 8.1e-07
2
 0.9986 0.0014
2
 0.9999 0.0001
2
 0.99999 1e-05
2
 0.99975 0.00025
2
 0.999 0.001
2
 0.99998 2e-05
2
 0.99999 1e-05
2
 0.999993 7e-06
2
 0.99999 1e-05
2
 0.9999 0.0001
2
 0.9981 0.0019
2
 0.9999 0.0001
2
 0.99995 5e-05
2
 0.9999 0.0001
2
 0.99999 1e-05
2
 0.9998 0.0002
2
 0.99991 9e-05
2
 1 4e-08
2
 0.99999 1e-05
2
 0.99989 0.00011
2
 0.9999 0.0001
2
 0.999999 1.4e-06
2
 0.99975 0.00025
2
 0.9999 0.0001
2
 0.9999 0.0001
2
 0.99995 5e-05
2
 0.9999 0.0001
2
 0.99995 5e-05
2
 0.999977 2.342e-05
2
 0.9999 0.0001
2
 0.99989 0.00011
2
 0.999999 1e-06
2
 0.99998 2e-05
2
 0.99994 6e-05
2
 0.9996 0.0004
2
 0.9999 0.0001
2
 0.9999 0.0001
2
 0.9999 0.0001
2
 0.99998 2e-05
2
 0.99998 2e-05
2
 0.99999 1e-05
2
 0.9999 0.0001
2
 0.99995 5e-05
2
 0.998 0.002
2
 0.99992 8e-05
2
 0.99974 0.00026
2
 0.999998 2e-06
2
 0.9999 0.0001
2
 0.999999 1e-06
2
 1 1.1e-07
2
 0.99989 0.00011
2
 0.99995 5e-05
2
 0.9999 0.0001
2
 0.99998 2e-05
2
 0.99996 4e-05
2
 0.99946 0.00054
2
 0.99999 1e-05
2
 0.999999 1.26e-06
2
 0.9999 0.0001
2
 0.99996 4e-05
2
 0.99981 0.00019
2
 0.9999 0.0001
2
 0.9999 0.0001
2
 0.99998 2e-05
2
 1 1e-08
2
 1 1.7e-07
2
 0.9995 0.0005
2
 0.9999 0.0001
2
 0.9999 0.0001
2
 0.9999 0.0001
2
 1 1.1e-07
2
 0.99992 8e-05
2
 0.99997 3e-05
2
 0.9995 0.0005
2
 0.9999 0.0001
2
 0.99989 0.00011
2
 0.99999 1e-05
2
 0.99998 2e-05
2
 0.9996 0.0004
2
 1 6e-08
2
 0.99996 4e-05
2
 0.99995 5e-05
2
 0.9999 0.0001
2
 0.9995 0.0005
2
 0.999973 2.7e-05
2
 0.99999 1e-05
2
 0.99995 5e-05
2
 0.99999 1e-05
2
 0.9999 0.0001
2
 0.9999 0.0001
2
 0.9999 0.0001
2
 0.99982 0.00018
2
 0.999999 1e-06
2
 0.9999 0.0001
2
 0.99999 1e-05
2
 0.9999 0.0001
2
 0.9995 0.0005
2
 0.99995 5e-05
2
 0.9999 0.0001
2
 1 1e-08
2
 0.99985 0.00015
2
 0.9999 0.0001
2
 0.99991 9e-05
2
 0.9996 0.0004
2
 0.99998 2e-05
2
 0.99998 2e-05
2
 0.99999 1e-05
2
 0.99986 0.00014
2
 0.9999 0.0001
2
 0.99982 0.00018
2
 0.9998 0.0002
2
 0.9999 0.0001
2
 0.9999 0.0001
2
 0.9995 0.0005
2
 0.99999 1e-05
2
 0.99999 1e-05
2
 0.999997 2.88e-06
2
 0.9995 0.0005
2
 0.99995 5e-05
2
 0.99922 0.00078
2
 0.9994 0.0006
2
 0.9998 0.0002
2
 0.99993 7e-05
2
 0.9991 0.0009
2
 0.9998 0.0002
2
 0.99995 5e-05
2
 0.9998 0.0002
2
 0.9998 0.0002
2
 0.9999 0.0001
2
 0.9994 0.0006
2
 0.99995 5e-05
2
 0.99999 1e-05
2
 0.9999 0.0001
2
 0.9999 0.0001
2
 0.9999 0.0001
2
 0.9995 0.0005
2
 0.9999 0.0001
2
 0.99999 1e-05
2
 0.9999 0.0001
2
 0.9995 0.0005
2
 0.9997 0.0003
2
 0.9999 0.0001
2
 0.9995 0.0005
2
 0.99984 0.00016
2
 0.999 0.001
2
 0.99993 7e-05
2
 0.9996 0.0004
2
 0.9999 0.0001
2
 0.9999 0.0001
2
 0.99997 3e-05
2
 0.9999 0.0001
2
 0.999 0.001
2
 0.99991 9e-05
2
 0.998 0.002
2
 0.99996 4e-05
2
 1 4e-08
2
 0.9999 0.0001
2
 0.9995 0.0005
2
 0.9999 0.0001
2
 1 1e-08
2
 0.99998 2e-05
2
 0.99995 5e-05
2
 1 4e-08
2
 0.9995 0.0005
2
 0.9999 0.0001
2
 0.9982 0.0018
2
 0.99998 2e-05
2
 0.9999 0.0001
2
 0.9999 0.0001
2
 0.99985 0.00015
2
 0.99996 4e-05
2
 0.9999 0.0001
2
 0.9999 0.0001
2
 0.9999 0.0001
2
 0.99999 1e-05
2
 0.9999 0.0001
2
 0.999977 2.291e-05
2
 0.9996 0.0004
2
 0.99985 0.00015
2
 0.998 0.002
2
 0.99989 0.00011
2
 0.9999 0.0001
2
 0.9985 0.0015
2
 0.99995 5e-05
2
 0.9999 0.0001
2
 1 1e-08
2
 0.9995 0.0005
2
 0.998 0.002
2
 0.9995 0.0005
2
 0.999784 0.000216
2
 0.9996 0.0004
2
 0.99995 5e-05
2
 0.99998 2.003e-05
2
 0.994 0.006
2
 0.9995 0.0005
2
 0.9999 0.0001
2
 0.99987 0.00013
2
 0.9997 0.0003
2
 0.999999 6.2e-07
2
 0.99995 5e-05
2
 0.99995 5e-05
2
 0.99999 1e-05
2
 0.9999 0.0001
2
 0.99998 2e-05
2
 0.99995 5e-05
2
 0.99974 0.00026
2
 1 1.2e-07
2
 0.99998 2e-05
2
 1 2.8e-07
2
 0.99995 5e-05
2
 0.999991 8.59e-06
2
 0.9995 0.0005
2
 0.9996 0.0004
2
 0.994 0.006
2
 0.999999 1e-06
2
 0.99995 5e-05
2
 0.9999 0.0001
2
 0.9997 0.0003
2
 0.99998 2e-05
2
 0.99999 1e-05
2
 0.99999 1e-05
2
 0.9999 0.0001
2
 0.9999 0.0001
2
 1 2e-08
2
 0.9999 0.0001
2
 0.9999 0.0001
2
 0.999996 4e-06
2
 0.9999 0.0001
2
 1 1.6e-07
2
 0.9999 0.0001
2
 0.9994 0.0006
2
 0.9999 0.0001
2
 0.9999 0.0001
2
 0.999907 9.332e-05
2
 0.9999 0.0001
2
 0.9994 0.0006
2
 0.9999 0.0001
2
 0.99989 0.00011
2
 0.9999 0.0001
2
 0.999969 3.12e-05
2
 0.999999 5.4e-07
2
 0.9999 0.0001
2
 0.999999 1e-06
2
 0.9992 0.0008
2
 0.999999 1e-06
2
 0.99997 3e-05
2
 0.99995 5e-05
2
 0.999992 8e-06
2
 0.99975 0.00025
2
 0.9999 0.0001
2
 0.99975 0.00025
2
 0.9999 0.0001
2
 0.9999 0.0001
2
 0.9999 0.0001
2
 0.99999 1e-05
2
 1 1e-08
2
 0.9999 0.0001
2
 0.99999 1e-05
2
 1 1.4e-07
2
 0.999953 4.733e-05
2
 0.9998 0.0002
2
 0.9999 0.0001
2
 0.9999 0.0001
2
 0.9999 0.0001
2
 0.99999 1e-05
2
 0.999 0.001
2
 0.99995 5e-05
2
 0.9995 0.0005
2
 0.99994 6e-05
2
 0.99991 9e-05
2
 0.99991 9e-05
2
 0.9999 0.0001
2
 0.999 0.001
2
 0.9999 0.0001
2
 0.99999 1e-05
2
 0.99995 5e-05
2
 0.9999 0.0001
2
 0.99997 3e-05
2
 0.9985 0.0015
2
 0.9999 0.0001
2
 1 2.9e-07
2
 1 1e-07
2
 1 6e-08
2
 0.99995 5e-05
2
 0.9999 0.0001
2
 0.99994 6e-05
2
 0.9998 0.0002
2
 0.999994 6e-06
2
 0.9999 0.0001
2
 0.9998 0.0002
2
 0.9999 0.0001
2
 0.99997 3e-05
2
 0.99997 3e-05
2
 0.99998 2e-05
2
 0.9999 0.0001
2
 0.99997 3e-05
2
 0.99994 6e-05
2
 0.99999 1e-05
2
 0.99997 3e-05
2
 0.999999 1e-06
2
 1 1e-08
2
 0.9995 0.0005
2
 0.99998 2e-05
2
 0.9999 0.0001
2
 0.9999 0.0001
2
 0.9999 0.0001
2
 0.9999 0.0001
2
 0.999999 1e-06
2
 0.9975 0.0025
2
 0.9999 0.0001
2
 0.9999 0.0001
2
 0.9995 0.0005
2
 1 1e-08
2
 0.9999 0.0001
2
 0.99997 3e-05
2
 0.9999 0.0001
2
 0.99998 2e-05
2
 1 1e-07
2
 0.99989 0.00011
2
 1 1e-07
2
 0.9999 0.0001
2
 0.99997 3e-05
2
 0.99999 1e-05
2
 0.9999 0.0001
2
 0.99996 4e-05
2
 0.99997 3e-05
2
 0.9999 0.0001
2
 0.999585 0.000415
2
 0.9999 0.0001
2
 0.9998 0.0002
2
 0.9994 0.0006
2
 0.9999 0.0001
2
 0.99997 3e-05
2
 0.9999 0.0001
2
 0.99998 2e-05
2
 0.9999 0.0001
2
 1 5e-07
2
 0.99993 7e-05
1
 1

